NAME : mr48
COMMENT : 48-city problem (DISC)
TYPE : TSP
DIMENSION : 48
EDGE_WEIGHT_TYPE : EUC_2D
NODE_COORD_SECTION
1 2 68
2 90 91
3 29 31
4 30 19
5 80 4
6 33 38
7 87 97
8 45 58
9 55 89
10 36 52
11 12 73
12 15 39
13 45 100
14 74 40
15 47 15
16 60 91
17 34 7
18 46 10
19 19 47
20 41 1
21 14 69
22 4 39
23 9 72
24 22 61
25 55 93
26 66 8
27 59 62
28 58 60
29 34 36
30 39 34
31 41 2
32 68 84
33 15 75
34 79 36
35 4 49
36 62 58
37 16 28
38 78 28
39 27 99
40 78 45
41 29 7
42 66 37
43 96 4
44 92 3
45 17 80
46 34 81
47 10 27
48 70 25
EOF
